Minimize
Subject to
\|DEM| For all Sx and Dz = hxz (= x+z)
x111 + x121 + x131 = 2
x112 + x122 + x132 = 3
x113 + x123 + x133 = 4
x114 + x124 + x134 = 5
x211 + x221 + x231 = 3
x212 + x222 + x232 = 4
x213 + x223 + x233 = 5
x214 + x224 + x234 = 6
x311 + x321 + x331 = 4
x312 + x322 + x332 = 5
x313 + x323 + x333 = 6
x314 + x324 + x334 = 7
x411 + x421 + x431 = 5
x412 + x422 + x432 = 6
x413 + x423 + x433 = 7
x414 + x424 + x434 = 8
\|CAP| For all Sx and Ty = cxy
x111 + x112 + x113 + x114 = c11
x121 + x122 + x123 + x124 = c12
x131 + x132 + x133 + x134 = c13
x211 + x212 + x213 + x214 = c21
x221 + x222 + x223 + x224 = c22
x231 + x232 + x233 + x234 = c23
x311 + x312 + x313 + x314 = c31
x321 + x322 + x323 + x324 = c32
x331 + x332 + x333 + x334 = c33
x411 + x412 + x413 + x414 = c41
x421 + x422 + x423 + x424 = c42
x431 + x432 + x433 + x434 = c43
\|CAP| For all Ty and Dz = dyz
x111 + x211 + x311 + x411 = d11
x112 + x212 + x312 + x412 = d12
x113 + x213 + x313 + x413 = d13
x114 + x214 + x314 + x414 = d14
x121 + x221 + x321 + x421 = d21
x122 + x222 + x322 + x422 = d22
x123 + x223 + x323 + x423 = d23
x124 + x224 + x324 + x424 = d24
x131 + x231 + x331 + x431 = d31
x132 + x232 + x332 + x432 = d32
x133 + x233 + x333 + x433 = d33
x134 + x234 + x334 + x434 = d34
\|CAP| For all Sx and Dz = hxz(for all uxyz)
2 x111 + 2 x121 + 2 x131 = 2 u111 + 2 u121 + 2 u131
2 x112 + 2 x122 + 2 x132 = 3 u112 + 3 u122 + 3 u132
2 x113 + 2 x123 + 2 x133 = 4 u113 + 4 u123 + 4 u133
2 x114 + 2 x124 + 2 x134 = 5 u114 + 5 u124 + 5 u134
2 x211 + 2 x221 + 2 x231 = 3 u211 + 3 u221 + 3 u231
2 x212 + 2 x222 + 2 x232 = 4 u212 + 4 u222 + 4 u232
2 x213 + 2 x223 + 2 x233 = 5 u213 + 5 u223 + 5 u233
2 x214 + 2 x224 + 2 x234 = 6 u214 + 6 u224 + 6 u234
2 x311 + 2 x321 + 2 x331 = 4 u311 + 4 u321 + 4 u331
2 x312 + 2 x322 + 2 x332 = 5 u312 + 5 u322 + 5 u332
2 x313 + 2 x323 + 2 x333 = 6 u313 + 6 u323 + 6 u333
2 x314 + 2 x324 + 2 x334 = 7 u314 + 7 u324 + 7 u334
2 x411 + 2 x421 + 2 x431 = 5 u411 + 5 u421 + 5 u431
2 x412 + 2 x422 + 2 x432 = 6 u412 + 6 u422 + 6 u432
2 x413 + 2 x423 + 2 x433 = 7 u413 + 7 u423 + 7 u433
2 x414 + 2 x424 + 2 x434 = 8 u414 + 8 u424 + 8 u434
\Two distinct paths
u111 + u121 + u131 = 2
u112 + u122 + u132 = 2
u113 + u123 + u133 = 2
u114 + u124 + u134 = 2
u211 + u221 + u231 = 2
u212 + u222 + u232 = 2
u213 + u223 + u233 = 2
u214 + u224 + u234 = 2
u311 + u321 + u331 = 2
u312 + u322 + u332 = 2
u313 + u323 + u333 = 2
u314 + u324 + u334 = 2
u411 + u421 + u431 = 2
u412 + u422 + u432 = 2
u413 + u423 + u433 = 2
u414 + u424 + u434 = 2

Bounds 
x111 >= 0
x112 >= 0
x113 >= 0
x114 >= 0
x121 >= 0
x122 >= 0
x123 >= 0
x124 >= 0
x131 >= 0
x132 >= 0
x133 >= 0
x134 >= 0
x211 >= 0
x212 >= 0
x213 >= 0
x214 >= 0
x221 >= 0
x222 >= 0
x223 >= 0
x224 >= 0
x231 >= 0
x232 >= 0
x233 >= 0
x234 >= 0
x311 >= 0
x312 >= 0
x313 >= 0
x314 >= 0
x321 >= 0
x322 >= 0
x323 >= 0
x324 >= 0
x331 >= 0
x332 >= 0
x333 >= 0
x334 >= 0
x411 >= 0
x412 >= 0
x413 >= 0
x414 >= 0
x421 >= 0
x422 >= 0
x423 >= 0
x424 >= 0
x431 >= 0
x432 >= 0
x433 >= 0
x434 >= 0
c11 >= 0
c12 >= 0
c13 >= 0
c21 >= 0
c22 >= 0
c23 >= 0
c31 >= 0
c32 >= 0
c33 >= 0
c41 >= 0
c42 >= 0
c43 >= 0
d11 >= 0
d12 >= 0
d13 >= 0
d14 >= 0
d21 >= 0
d22 >= 0
d23 >= 0
d24 >= 0
d31 >= 0
d32 >= 0
d33 >= 0
d34 >= 0
end
